solving instance uflp nlass holmberg 13 sincos
presolving:
(round 1, fast)       0 del vars, 0 del conss, 0 add conss, 1000 chg bounds, 0 chg sides, 0 chg coeffs, 0 upgd conss, 0 impls, 1000 clqs
(round 2, exhaustive) 0 del vars, 0 del conss, 0 add conss, 1000 chg bounds, 0 chg sides, 0 chg coeffs, 2000 upgd conss, 0 impls, 1000 clqs
   (0.6s) probing: 1000/1020 (98.0%) - 0 fixings, 0 aggregations, 999 implications, 999 bound changes
   (0.6s) probing: 1001/1020 (98.1%) - 0 fixings, 0 aggregations, 1000 implications, 1000 bound changes
   (0.6s) probing aborted: 1000/1000 successive useless probings
(round 3, exhaustive) 0 del vars, 0 del conss, 0 add conss, 2000 chg bounds, 0 chg sides, 0 chg coeffs, 2000 upgd conss, 2000 impls, 1000 clqs
   (0.7s) probing cycle finished: starting next cycle
   (0.7s) probing: 31/1020 (3.0%) - 0 fixings, 0 aggregations, 1000 implications, 1000 bound changes
   (0.7s) probing aborted: 50/50 successive totally useless probings
   (0.7s) symmetry computation started: requiring (bin +, int +, cont +), (fixed: bin -, int -, cont -)
   (0.8s) no symmetry present (symcode time: 0.01)
presolving (4 rounds: 4 fast, 3 medium, 3 exhaustive):
 0 deleted vars, 0 deleted constraints, 0 added constraints, 2000 tightened bounds, 0 added holes, 0 changed sides, 0 changed coefficients
 2000 implications, 1000 cliques
presolved problem has 3020 variables (1020 bin, 0 int, 0 impl, 2000 cont) and 3050 constraints
   1000 constraints of type <varbound>
   1000 constraints of type <setppc>
     50 constraints of type <linear>
   1000 constraints of type <nonlinear>
Presolving Time: 0.72

 time | node  | left  |LP iter|LP it/n|mem/heur|mdpt |vars |cons |rows |cuts |sepa|confs|strbr|  dualbound   | primalbound  |  gap   | compl. 
t 1.2s|     1 |     0 |  3000 |     - |  trysol|   0 |8020 |3050 |9050 |   0 |  0 |   0 |   0 |-3.108104e+04 | 1.922072e+04 |    Inf | unknown
  1.4s|     1 |     0 | 10116 |     - |   111M |   0 |8020 |3050 |9050 |   0 |  0 |   0 |   0 |-1.283116e+04 | 1.922072e+04 |    Inf | unknown
  3.2s|     1 |     0 | 15140 |     - |   129M |   0 |8020 |3051 |  10k|1201 |  1 |   1 |   0 |-7.371352e+03 | 1.922072e+04 |    Inf | unknown
  4.5s|     1 |     0 | 18765 |     - |   131M |   0 |8020 |3051 |  11k|2145 |  2 |   1 |   0 |-3.016706e+03 | 1.922072e+04 |    Inf | unknown
  5.5s|     1 |     0 | 20906 |     - |   133M |   0 |8020 |3051 |  11k|2625 |  3 |   1 |   0 |-2.716632e+03 | 1.922072e+04 |    Inf | unknown
  6.3s|     1 |     0 | 22172 |     - |   135M |   0 |8020 |3051 |  12k|3103 |  4 |   1 |   0 |-2.598261e+03 | 1.922072e+04 |    Inf | unknown
  6.8s|     1 |     0 | 22900 |     - |   136M |   0 |8020 |3051 |  12k|3431 |  5 |   1 |   0 |-2.561027e+03 | 1.922072e+04 |    Inf | unknown
  7.1s|     1 |     0 | 23475 |     - |   138M |   0 |8020 |3051 |  12k|3758 |  6 |   1 |   0 |-2.540675e+03 | 1.922072e+04 |    Inf | unknown
  7.4s|     1 |     0 | 24139 |     - |   140M |   0 |8020 |3051 |  13k|4023 |  7 |   1 |   0 |-2.530368e+03 | 1.922072e+04 |    Inf | unknown
  7.7s|     1 |     0 | 24574 |     - |   141M |   0 |8020 |3051 |  13k|4264 |  8 |   1 |   0 |-2.526790e+03 | 1.922072e+04 |    Inf | unknown
  8.0s|     1 |     0 | 25029 |     - |   143M |   0 |8020 |3051 |  13k|4508 |  9 |   1 |   0 |-2.524669e+03 | 1.922072e+04 |    Inf | unknown
  8.2s|     1 |     0 | 25373 |     - |   145M |   0 |8020 |3051 |  13k|4736 | 10 |   1 |   0 |-2.523521e+03 | 1.922072e+04 |    Inf | unknown
  8.5s|     1 |     0 | 25863 |     - |   146M |   0 |8020 |3051 |  13k|4926 | 11 |   1 |   0 |-2.521054e+03 | 1.922072e+04 |    Inf | unknown
  8.7s|     1 |     0 | 26264 |     - |   148M |   0 |8020 |3051 |  14k|5062 | 12 |   1 |   0 |-2.520364e+03 | 1.922072e+04 |    Inf | unknown
  8.9s|     1 |     0 | 26486 |     - |   149M |   0 |8020 |3051 |  14k|5174 | 13 |   1 |   0 |-2.519985e+03 | 1.922072e+04 |    Inf | unknown
 time | node  | left  |LP iter|LP it/n|mem/heur|mdpt |vars |cons |rows |cuts |sepa|confs|strbr|  dualbound   | primalbound  |  gap   | compl. 
  9.0s|     1 |     0 | 26665 |     - |   151M |   0 |8020 |3051 |  10k|5258 | 14 |   1 |   0 |-2.519801e+03 | 1.922072e+04 |    Inf | unknown
  9.2s|     1 |     0 | 26964 |     - |   152M |   0 |8020 |3051 |  10k|5318 | 15 |   1 |   0 |-2.519549e+03 | 1.922072e+04 |    Inf | unknown
 10.8s|     1 |     0 | 27159 |     - |   154M |   0 |8020 |3051 |  10k|5402 | 16 |   1 |   0 |-2.519286e+03 | 1.922072e+04 |    Inf | unknown
 11.0s|     1 |     0 | 27578 |     - |   155M |   0 |8020 |3051 |  10k|5453 | 17 |   1 |   0 |-2.518814e+03 | 1.922072e+04 |    Inf | unknown
 11.2s|     1 |     0 | 27888 |     - |   156M |   0 |8020 |3051 |  10k|5534 | 18 |   1 |   0 |-2.518380e+03 | 1.922072e+04 |    Inf | unknown
 11.4s|     1 |     0 | 28011 |     - |   157M |   0 |8020 |3051 |  10k|5568 | 19 |   1 |   0 |-2.518215e+03 | 1.922072e+04 |    Inf | unknown
 11.5s|     1 |     0 | 28125 |     - |   158M |   0 |8020 |3051 |9035 |5593 | 20 |   1 |   0 |-2.518066e+03 | 1.922072e+04 |    Inf | unknown
 11.7s|     1 |     0 | 28151 |     - |   158M |   0 |8020 |3051 |9056 |5614 | 21 |   1 |   0 |-2.517841e+03 | 1.922072e+04 |    Inf | unknown
 11.8s|     1 |     0 | 28164 |     - |   158M |   0 |8020 |3051 |9066 |5624 | 22 |   1 |   0 |-2.517747e+03 | 1.922072e+04 |    Inf | unknown
 11.9s|     1 |     0 | 28183 |     - |   158M |   0 |8020 |3051 |9071 |5629 | 23 |   1 |   0 |-2.517730e+03 | 1.922072e+04 |    Inf | unknown
 12.0s|     1 |     0 | 28213 |     - |   158M |   0 |8020 |3051 |9076 |5634 | 24 |   1 |   0 |-2.517716e+03 | 1.922072e+04 |    Inf | unknown
 12.2s|     1 |     0 | 28256 |     - |   158M |   0 |8020 |3051 |9083 |5641 | 25 |   1 |   0 |-2.517700e+03 | 1.922072e+04 |    Inf | unknown
 12.3s|     1 |     0 | 28270 |     - |   158M |   0 |8020 |3051 |8338 |5651 | 26 |   1 |   0 |-2.517699e+03 | 1.922072e+04 |    Inf | unknown
 12.5s|     1 |     0 | 28280 |     - |   158M |   0 |8020 |3051 |8342 |5655 | 27 |   1 |   0 |-2.517698e+03 | 1.922072e+04 |    Inf | unknown
 12.7s|     1 |     0 | 28282 |     - |   159M |   0 |8020 |3051 |8343 |5656 | 28 |   1 |   0 |-2.517698e+03 | 1.922072e+04 |    Inf | unknown
 time | node  | left  |LP iter|LP it/n|mem/heur|mdpt |vars |cons |rows |cuts |sepa|confs|strbr|  dualbound   | primalbound  |  gap   | compl. 
L32.7s|     1 |     0 | 42783 |     - |    rens|   0 |8020 |3051 |8343 |5656 | 28 |   1 |   0 |-2.517698e+03 | 1.519096e+04 |    Inf | unknown
d60.6s|     1 |     0 | 42783 |     - |    mpec|   0 |8020 |3051 |8343 |5656 | 28 |   1 |   0 |-2.517698e+03 | 1.416389e+04 |    Inf | unknown
 60.6s|     1 |     0 | 42783 |     - |   163M |   0 |8020 |3051 |8343 |5656 | 28 |   1 |   0 |-2.517698e+03 | 1.416389e+04 |    Inf | unknown
 64.4s|     1 |     2 | 42783 |     - |   163M |   0 |8020 |3051 |8343 |5656 | 29 |   1 |  20 |-2.517086e+03 | 1.416389e+04 |    Inf | unknown
d 157s|    51 |    52 | 86505 |1224.5 |    mpec|  50 |8020 |3051 |  11k|  13k|  2 |   1 | 204 |-2.503418e+03 | 1.320204e+04 |    Inf | unknown
  188s|   100 |   101 |117387 | 930.4 |   187M |  57 |8020 |3051 |  11k|  17k|  2 |   1 | 217 |-2.503418e+03 | 1.320204e+04 |    Inf | unknown
L 213s|   155 |   156 |130152 | 681.0 |    gins| 108 |8020 |3051 |  12k|  18k|  2 |   1 | 217 |-2.503418e+03 | 1.319872e+04 |    Inf | unknown
  221s|   200 |   201 |142711 | 590.1 |   190M | 117 |8020 |3051 |  12k|  19k|  2 |   1 | 224 |-2.503418e+03 | 1.319872e+04 |    Inf | unknown
L 244s|   255 |   256 |159967 | 530.3 |    gins| 117 |8020 |3051 |  12k|  20k|  2 |   1 | 235 |-2.503418e+03 | 1.289905e+04 |    Inf | unknown
  265s|   300 |   301 |175698 | 503.1 |   194M | 119 |8020 |3051 |  12k|  21k|  2 |   1 | 251 |-2.503418e+03 | 1.289905e+04 |    Inf | unknown
  312s|   400 |   401 |201402 | 441.4 |   197M | 121 |8020 |3051 |  12k|  22k|  2 |   1 | 264 |-2.503418e+03 | 1.289905e+04 |    Inf | unknown
  448s|   500 |   501 |253864 | 458.1 |   206M | 123 |8020 |3051 |  12k|  29k|  2 |   1 | 305 |-2.501968e+03 | 1.289905e+04 |    Inf | unknown
  517s|   600 |   601 |291082 | 443.7 |   209M | 126 |8020 |3051 |  12k|  30k|  2 |   1 | 319 |-2.501968e+03 | 1.289905e+04 |    Inf | unknown
  531s|   700 |   701 |322688 | 425.5 |   211M | 153 |8020 |3051 |  12k|  32k|  2 |   1 | 342 |-2.501968e+03 | 1.289905e+04 |    Inf | unknown
  544s|   800 |   801 |349973 | 406.4 |   215M | 161 |8020 |3051 |  12k|  33k|  2 |   1 | 365 |-2.501968e+03 | 1.289905e+04 |    Inf | unknown
 time | node  | left  |LP iter|LP it/n|mem/heur|mdpt |vars |cons |rows |cuts |sepa|confs|strbr|  dualbound   | primalbound  |  gap   | compl. 
  573s|   900 |   901 |411644 | 429.8 |   226M | 167 |8020 |3051 |  13k|  42k|  2 |   1 | 413 |-2.501968e+03 | 1.289905e+04 |    Inf | unknown
  600s|  1000 |  1001 |459655 | 434.8 |   238M | 167 |8020 |3051 |  12k|  51k|  2 |   1 | 466 |-2.501627e+03 | 1.289905e+04 |    Inf | unknown
  622s|  1100 |  1101 |495403 | 427.8 |   244M | 167 |8020 |3051 |  12k|  58k|  3 |   1 | 499 |-2.501627e+03 | 1.289905e+04 |    Inf | unknown
  638s|  1200 |  1201 |524337 | 416.2 |   247M | 173 |8020 |3051 |  12k|  60k|  2 |   1 | 524 |-2.501627e+03 | 1.289905e+04 |    Inf | unknown
  652s|  1300 |  1301 |546781 | 401.5 |   248M | 173 |8020 |3051 |  12k|  62k|  4 |   1 | 543 |-2.501627e+03 | 1.289905e+04 |    Inf | unknown
  666s|  1400 |  1401 |565464 | 386.1 |   253M | 177 |8020 |3051 |  12k|  64k|  3 |   1 | 566 |-2.501627e+03 | 1.289905e+04 |    Inf | unknown
  689s|  1500 |  1501 |610134 | 390.2 |   257M | 177 |8020 |3051 |  12k|  72k|  2 |   1 | 635 |-2.501627e+03 | 1.289905e+04 |    Inf | unknown
  706s|  1600 |  1601 |638824 | 383.7 |   271M | 177 |8020 |3051 |  12k|  75k|  2 |   1 | 696 |-2.501627e+03 | 1.289905e+04 |    Inf | unknown
  727s|  1700 |  1701 |675267 | 382.6 |   276M | 177 |8020 |3051 |  13k|  79k|  2 |   1 | 756 |-2.501627e+03 | 1.289905e+04 |    Inf | unknown
  748s|  1800 |  1801 |712702 | 382.1 |   282M | 177 |8020 |3051 |  14k|  85k|  2 |   1 | 846 |-2.501627e+03 | 1.289905e+04 |    Inf | unknown
  771s|  1900 |  1901 |745868 | 379.5 |   289M | 177 |8020 |3051 |  13k|  90k|  2 |   1 | 906 |-2.501627e+03 | 1.289905e+04 |    Inf | unknown
  785s|  2000 |  2001 |771530 | 373.3 |   295M | 177 |8020 |3051 |  12k|  92k|  3 |   1 | 929 |-2.501627e+03 | 1.289905e+04 |    Inf | unknown
  810s|  2100 |  2101 |810456 | 374.1 |   303M | 179 |8020 |3051 |  14k|  99k|  4 |   1 | 988 |-2.501627e+03 | 1.289905e+04 |    Inf | unknown
  829s|  2200 |  2201 |844236 | 372.4 |   309M | 179 |8020 |3051 |  14k| 104k|  9 |   1 |1015 |-2.501627e+03 | 1.289905e+04 |    Inf | unknown
  851s|  2300 |  2301 |872214 | 368.4 |   319M | 179 |8020 |3051 |  14k| 110k|  5 |   1 |1077 |-2.501627e+03 | 1.289905e+04 |    Inf | unknown
 time | node  | left  |LP iter|LP it/n|mem/heur|mdpt |vars |cons |rows |cuts |sepa|confs|strbr|  dualbound   | primalbound  |  gap   | compl. 
  867s|  2400 |  2401 |882477 | 357.3 |   325M | 179 |8020 |3051 |  12k| 112k|  4 |   1 |1082 |-2.501627e+03 | 1.289905e+04 |    Inf | unknown
  885s|  2500 |  2501 |901853 | 350.8 |   328M | 179 |8020 |3051 |  12k| 118k|  2 |   1 |1106 |-2.501627e+03 | 1.289905e+04 |    Inf | unknown
  903s|  2600 |  2601 |926302 | 346.7 |   336M | 179 |8020 |3051 |  12k| 125k|  2 |   1 |1124 |-2.501627e+03 | 1.289905e+04 |    Inf | unknown
  920s|  2700 |  2701 |955296 | 344.6 |   341M | 179 |8020 |3051 |  13k| 131k|  2 |   1 |1135 |-2.501627e+03 | 1.289905e+04 |    Inf | unknown
  935s|  2800 |  2801 |974049 | 339.0 |   348M | 179 |8020 |3051 |  12k| 133k|  5 |   1 |1140 |-2.501627e+03 | 1.289905e+04 |    Inf | unknown
  957s|  2900 |  2901 |994273 | 334.3 |   352M | 179 |8020 |3051 |  13k| 139k| 11 |   1 |1142 |-2.501627e+03 | 1.289905e+04 |    Inf | unknown
 1012s|  3000 |  3001 |  1035k| 337.0 |   367M | 179 |8020 |3051 |  12k| 147k|  2 |   1 |1440 |-2.500030e+03 | 1.289905e+04 |    Inf | unknown
 1025s|  3100 |  3101 |  1047k| 329.8 |   368M | 179 |8020 |3051 |  12k| 149k|  8 |   1 |1443 |-2.500030e+03 | 1.289905e+04 |    Inf | unknown
 1041s|  3200 |  3201 |  1063k| 324.6 |   371M | 179 |8020 |3051 |  13k| 153k|  6 |   1 |1443 |-2.500030e+03 | 1.289905e+04 |    Inf | unknown
 1056s|  3300 |  3301 |  1075k| 318.2 |   375M | 179 |8020 |3051 |  12k| 155k|  5 |   1 |1446 |-2.500030e+03 | 1.289905e+04 |    Inf | unknown
 1072s|  3400 |  3401 |  1091k| 313.7 |   380M | 179 |8020 |3051 |  13k| 160k|  9 |   1 |1449 |-2.500030e+03 | 1.289905e+04 |    Inf | unknown
 1091s|  3500 |  3501 |  1116k| 311.8 |   384M | 179 |8020 |3051 |  12k| 166k|  2 |   1 |1451 |-2.500030e+03 | 1.289905e+04 |    Inf | unknown
 1111s|  3600 |  3601 |  1138k| 309.4 |   385M | 183 |8020 |3051 |  13k| 171k|  2 |   1 |1453 |-2.500030e+03 | 1.289905e+04 |    Inf | unknown
 1130s|  3700 |  3701 |  1159k| 306.6 |   392M | 185 |8020 |3051 |  12k| 176k|  2 |   1 |1456 |-2.500030e+03 | 1.289905e+04 |    Inf | unknown
 1149s|  3800 |  3801 |  1196k| 308.2 |   403M | 185 |8020 |3051 |  13k| 185k|  3 |   1 |1460 |-2.500030e+03 | 1.289905e+04 |    Inf | unknown
 time | node  | left  |LP iter|LP it/n|mem/heur|mdpt |vars |cons |rows |cuts |sepa|confs|strbr|  dualbound   | primalbound  |  gap   | compl. 
 1173s|  3900 |  3901 |  1221k| 306.7 |   408M | 187 |8020 |3051 |  13k| 192k|  3 |   1 |1460 |-2.500030e+03 | 1.289905e+04 |    Inf | unknown
 1191s|  4000 |  4001 |  1232k| 302.0 |   414M | 187 |8020 |3051 |  13k| 196k|  2 |   1 |1460 |-2.500030e+03 | 1.289905e+04 |    Inf | unknown
 1208s|  4100 |  4101 |  1254k| 299.8 |   417M | 187 |8020 |3051 |  13k| 201k|  6 |   1 |1461 |-2.500030e+03 | 1.289905e+04 |    Inf | unknown
 1226s|  4200 |  4201 |  1282k| 299.4 |   421M | 187 |8020 |3051 |  14k| 209k|  6 |   1 |1463 |-2.500030e+03 | 1.289905e+04 |    Inf | unknown
 1242s|  4300 |  4301 |  1296k| 295.7 |   424M | 187 |8020 |3051 |  13k| 213k|  2 |   1 |1463 |-2.500030e+03 | 1.289905e+04 |    Inf | unknown
 1259s|  4400 |  4401 |  1309k| 291.9 |   426M | 187 |8020 |3051 |  12k| 216k|  4 |   1 |1463 |-2.500030e+03 | 1.289905e+04 |    Inf | unknown
 1274s|  4500 |  4501 |  1321k| 288.1 |   434M | 187 |8020 |3051 |  12k| 218k|  3 |   1 |1463 |-2.500030e+03 | 1.289905e+04 |    Inf | unknown
 1289s|  4600 |  4601 |  1329k| 283.5 |   435M | 187 |8020 |3051 |  12k| 220k|  4 |   1 |1463 |-2.500030e+03 | 1.289905e+04 |    Inf | unknown
 1308s|  4700 |  4701 |  1353k| 282.7 |   437M | 187 |8020 |3051 |  13k| 225k|  3 |   1 |1487 |-2.500030e+03 | 1.289905e+04 |    Inf | unknown
 1324s|  4800 |  4801 |  1359k| 278.1 |   441M | 187 |8020 |3051 |  12k| 227k|  9 |   1 |1509 |-2.500030e+03 | 1.289905e+04 |    Inf | unknown
 1341s|  4900 |  4901 |  1374k| 275.5 |   445M | 189 |8020 |3051 |  13k| 231k| 13 |   1 |1514 |-2.500030e+03 | 1.289905e+04 |    Inf | unknown
 1374s|  5000 |  5001 |  1416k| 278.4 |   459M | 189 |8020 |3051 |  13k| 241k|  8 |   1 |1622 |-2.499277e+03 | 1.289905e+04 |    Inf | unknown
 1391s|  5100 |  5101 |  1425k| 274.7 |   467M | 189 |8020 |3051 |  12k| 244k|  3 |   1 |1636 |-2.499277e+03 | 1.289905e+04 |    Inf | unknown
 1414s|  5200 |  5201 |  1453k| 274.8 |   470M | 189 |8020 |3051 |  14k| 251k|  8 |   1 |1685 |-2.499277e+03 | 1.289905e+04 |    Inf | unknown
 1432s|  5300 |  5301 |  1465k| 271.8 |   477M | 189 |8020 |3051 |  13k| 254k|  6 |   1 |1709 |-2.499277e+03 | 1.289905e+04 |    Inf | unknown
 time | node  | left  |LP iter|LP it/n|mem/heur|mdpt |vars |cons |rows |cuts |sepa|confs|strbr|  dualbound   | primalbound  |  gap   | compl. 
 1453s|  5400 |  5401 |  1491k| 271.6 |   480M | 189 |8020 |3051 |  14k| 260k| 11 |   1 |1751 |-2.499277e+03 | 1.289905e+04 |    Inf | unknown
 1480s|  5500 |  5501 |  1536k| 274.8 |   492M | 189 |8020 |3051 |  12k| 272k|  2 |   1 |1853 |-2.498954e+03 | 1.289905e+04 |    Inf | unknown
 1501s|  5600 |  5601 |  1561k| 274.5 |   496M | 189 |8020 |3051 |  12k| 279k|  2 |   1 |1896 |-2.498954e+03 | 1.289905e+04 |    Inf | unknown
 1519s|  5700 |  5701 |  1582k| 273.2 |   501M | 189 |8020 |3051 |  12k| 282k|  4 |   1 |1946 |-2.498954e+03 | 1.289905e+04 |    Inf | unknown
 1540s|  5800 |  5801 |  1605k| 272.5 |   505M | 189 |8020 |3051 |  13k| 286k| 16 |   1 |1976 |-2.498954e+03 | 1.289905e+04 |    Inf | unknown
 1568s|  5900 |  5901 |  1641k| 274.0 |   511M | 189 |8020 |3051 |  11k| 296k|  2 |   1 |2077 |-2.498825e+03 | 1.289905e+04 |    Inf | unknown
 1585s|  6000 |  6001 |  1677k| 275.4 |   522M | 189 |8020 |3051 |  12k| 302k|  3 |   1 |2107 |-2.498825e+03 | 1.289905e+04 |    Inf | unknown
 1602s|  6100 |  6101 |  1691k| 273.2 |   524M | 189 |8020 |3051 |  12k| 305k| 10 |   1 |2111 |-2.498825e+03 | 1.289905e+04 |    Inf | unknown
 1638s|  6200 |  6201 |  1712k| 272.1 |   529M | 189 |8020 |3051 |  12k| 308k|  8 |   1 |2113 |-2.498825e+03 | 1.289905e+04 |    Inf | unknown
 1660s|  6300 |  6301 |  1748k| 273.5 |   536M | 189 |8020 |3051 |  14k| 315k|  2 |   1 |2131 |-2.498825e+03 | 1.289905e+04 |    Inf | unknown
 1682s|  6400 |  6401 |  1769k| 272.7 |   548M | 189 |8020 |3051 |  11k| 321k|  4 |   1 |2197 |-2.498784e+03 | 1.289905e+04 |    Inf | unknown
 1695s|  6500 |  6501 |  1790k| 271.6 |   551M | 189 |8020 |3051 |  11k| 324k|  2 |   1 |2201 |-2.498784e+03 | 1.289905e+04 |    Inf | unknown
 1709s|  6600 |  6601 |  1810k| 270.6 |   554M | 189 |8020 |3051 |  11k| 326k|  2 |   1 |2201 |-2.498784e+03 | 1.289905e+04 |    Inf | unknown
 1722s|  6700 |  6701 |  1836k| 270.4 |   558M | 189 |8020 |3051 |  11k| 329k|  6 |   1 |2202 |-2.498784e+03 | 1.289905e+04 |    Inf | unknown
 1736s|  6800 |  6801 |  1858k| 269.6 |   562M | 189 |8020 |3051 |  11k| 332k|  2 |   1 |2202 |-2.498784e+03 | 1.289905e+04 |    Inf | unknown
 time | node  | left  |LP iter|LP it/n|mem/heur|mdpt |vars |cons |rows |cuts |sepa|confs|strbr|  dualbound   | primalbound  |  gap   | compl. 
 1749s|  6900 |  6901 |  1873k| 267.9 |   566M | 189 |8020 |3051 |  11k| 335k|  2 |   1 |2202 |-2.498784e+03 | 1.289905e+04 |    Inf | unknown
 1765s|  7000 |  7001 |  1891k| 266.7 |   568M | 189 |8020 |3051 |  11k| 338k| 10 |   1 |2203 |-2.498784e+03 | 1.289905e+04 |    Inf | unknown
 1783s|  7100 |  7101 |  1909k| 265.5 |   573M | 189 |8020 |3051 |  12k| 341k|  9 |   1 |2206 |-2.498784e+03 | 1.289905e+04 |    Inf | unknown
 1810s|  7200 |  7201 |  1956k| 268.3 |   583M | 189 |8020 |3051 |  12k| 350k|  2 |   1 |2233 |-2.498708e+03 | 1.289905e+04 |    Inf | unknown
 1820s|  7300 |  7301 |  1977k| 267.5 |   586M | 189 |8020 |3051 |  11k| 352k|  2 |   1 |2235 |-2.498708e+03 | 1.289905e+04 |    Inf | unknown
L1839s|  7376 |  7377 |  1993k| 266.9 |    gins| 189 |8020 |3051 |  11k| 355k|  2 |   1 |2236 |-2.498708e+03 | 1.261706e+04 |    Inf | unknown
 1843s|  7400 |  7401 |  2002k| 267.2 |   591M | 189 |8020 |3051 |  12k| 355k|  8 |   1 |2236 |-2.498708e+03 | 1.261706e+04 |    Inf | unknown
 1859s|  7500 |  7501 |  2015k| 265.4 |   593M | 189 |8020 |3051 |  12k| 359k|  4 |   1 |2238 |-2.498708e+03 | 1.261706e+04 |    Inf | unknown
 1880s|  7600 |  7601 |  2035k| 264.6 |   594M | 189 |8020 |3051 |  12k| 362k|  5 |   1 |2238 |-2.498708e+03 | 1.261706e+04 |    Inf | unknown
 1896s|  7700 |  7701 |  2058k| 264.1 |   596M | 189 |8020 |3051 |  12k| 365k| 10 |   1 |2239 |-2.498708e+03 | 1.261706e+04 |    Inf | unknown
 1917s|  7800 |  7801 |  2093k| 265.1 |   601M | 189 |8020 |3051 |  14k| 374k|  2 |   1 |2296 |-2.498708e+03 | 1.261706e+04 |    Inf | unknown
 1932s|  7900 |  7901 |  2116k| 264.8 |   604M | 189 |8020 |3051 |  12k| 378k| 14 |   1 |2323 |-2.498708e+03 | 1.261706e+04 |    Inf | unknown
 1950s|  8000 |  8001 |  2135k| 263.8 |   607M | 189 |8020 |3051 |  12k| 382k| 11 |   1 |2352 |-2.498708e+03 | 1.261706e+04 |    Inf | unknown
 1976s|  8100 |  8101 |  2160k| 263.6 |   613M | 189 |8020 |3051 |  14k| 390k| 14 |   1 |2410 |-2.498708e+03 | 1.261706e+04 |    Inf | unknown
 1997s|  8200 |  8201 |  2190k| 264.1 |   617M | 189 |8020 |3051 |  15k| 400k|  7 |   1 |2442 |-2.498708e+03 | 1.261706e+04 |    Inf | unknown
 time | node  | left  |LP iter|LP it/n|mem/heur|mdpt |vars |cons |rows |cuts |sepa|confs|strbr|  dualbound   | primalbound  |  gap   | compl. 
 2016s|  8300 |  8301 |  2213k| 263.7 |   622M | 189 |8020 |3051 |  14k| 408k| 12 |   1 |2490 |-2.498708e+03 | 1.261706e+04 |    Inf | unknown
 2031s|  8400 |  8401 |  2241k| 263.8 |   624M | 189 |8020 |3051 |  14k| 417k|  9 |   1 |2494 |-2.498708e+03 | 1.261706e+04 |    Inf | unknown
 2047s|  8500 |  8501 |  2261k| 263.1 |   629M | 189 |8020 |3051 |  14k| 424k|  8 |   1 |2496 |-2.498708e+03 | 1.261706e+04 |    Inf | unknown
 2063s|  8600 |  8601 |  2287k| 263.1 |   633M | 189 |8020 |3051 |  11k| 432k|  2 |   1 |2501 |-2.498708e+03 | 1.261706e+04 |    Inf | unknown
 2077s|  8700 |  8701 |  2314k| 263.1 |   636M | 189 |8020 |3051 |  11k| 440k|  3 |   1 |2508 |-2.498708e+03 | 1.261706e+04 |    Inf | unknown
 2094s|  8800 |  8801 |  2347k| 264.0 |   643M | 189 |8020 |3051 |  11k| 449k|  2 |   1 |2512 |-2.498708e+03 | 1.261706e+04 |    Inf | unknown
 2112s|  8900 |  8901 |  2379k| 264.6 |   647M | 189 |8020 |3051 |  12k| 458k|  5 |   1 |2513 |-2.498708e+03 | 1.261706e+04 |    Inf | unknown
 2131s|  9000 |  9001 |  2404k| 264.4 |   652M | 189 |8020 |3051 |  12k| 467k| 10 |   1 |2519 |-2.498708e+03 | 1.261706e+04 |    Inf | unknown
 2148s|  9100 |  9101 |  2427k| 264.0 |   654M | 189 |8020 |3051 |  11k| 474k|  2 |   1 |2527 |-2.498708e+03 | 1.261706e+04 |    Inf | unknown
 2163s|  9200 |  9201 |  2455k| 264.2 |   660M | 189 |8020 |3051 |  11k| 483k|  2 |   1 |2531 |-2.498708e+03 | 1.261706e+04 |    Inf | unknown
 2180s|  9300 |  9301 |  2476k| 263.6 |   664M | 189 |8020 |3051 |  11k| 491k|  2 |   1 |2536 |-2.498708e+03 | 1.261706e+04 |    Inf | unknown
 2204s|  9400 |  9401 |  2500k| 263.3 |   668M | 189 |8020 |3051 |  12k| 498k|  2 |   1 |2574 |-2.498708e+03 | 1.261706e+04 |    Inf | unknown
 2220s|  9500 |  9501 |  2527k| 263.4 |   673M | 189 |8020 |3051 |  13k| 510k|  2 |   1 |2589 |-2.498708e+03 | 1.261706e+04 |    Inf | unknown
 2236s|  9600 |  9601 |  2552k| 263.2 |   678M | 189 |8020 |3051 |  14k| 519k|  6 |   1 |2591 |-2.498708e+03 | 1.261706e+04 |    Inf | unknown
 2250s|  9700 |  9701 |  2575k| 263.0 |   681M | 189 |8020 |3051 |  11k| 527k|  3 |   1 |2597 |-2.498708e+03 | 1.261706e+04 |    Inf | unknown
 time | node  | left  |LP iter|LP it/n|mem/heur|mdpt |vars |cons |rows |cuts |sepa|confs|strbr|  dualbound   | primalbound  |  gap   | compl. 
 2265s|  9800 |  9801 |  2598k| 262.6 |   683M | 189 |8020 |3051 |  12k| 534k|  2 |   1 |2598 |-2.498708e+03 | 1.261706e+04 |    Inf | unknown
 2313s|  9900 |  9901 |  2653k| 265.5 |   701M | 189 |8020 |3051 |  12k| 548k|  2 |   1 |2938 |-2.496132e+03 | 1.261706e+04 |    Inf | unknown
 2333s| 10000 | 10001 |  2688k| 266.4 |   707M | 189 |8020 |3051 |  14k| 560k| 16 |   1 |2966 |-2.496132e+03 | 1.261706e+04 |    Inf | unknown
 2349s| 10100 | 10101 |  2714k| 266.3 |   710M | 189 |8020 |3051 |  13k| 569k|  7 |   1 |2966 |-2.496132e+03 | 1.261706e+04 |    Inf | unknown
 2364s| 10200 | 10201 |  2739k| 266.1 |   716M | 189 |8020 |3051 |  11k| 578k|  2 |   1 |2967 |-2.496132e+03 | 1.261706e+04 |    Inf | unknown
 2380s| 10300 | 10301 |  2764k| 266.0 |   721M | 189 |8020 |3051 |  11k| 586k|  3 |   1 |2971 |-2.496132e+03 | 1.261706e+04 |    Inf | unknown
 2394s| 10400 | 10401 |  2787k| 265.7 |   723M | 189 |8020 |3051 |  11k| 595k|  6 |   1 |2972 |-2.496132e+03 | 1.261706e+04 |    Inf | unknown
 2436s| 10500 | 10501 |  2835k| 267.7 |   738M | 189 |8020 |3051 |  12k| 609k|  2 |   1 |3188 |-2.496045e+03 | 1.261706e+04 |    Inf | unknown
 2452s| 10600 | 10601 |  2862k| 267.6 |   742M | 189 |8020 |3051 |  14k| 618k|  7 |   1 |3190 |-2.496045e+03 | 1.261706e+04 |    Inf | unknown
 2466s| 10700 | 10701 |  2881k| 266.9 |   745M | 189 |8020 |3051 |  13k| 624k|  7 |   1 |3191 |-2.496045e+03 | 1.261706e+04 |    Inf | unknown
 2482s| 10800 | 10801 |  2908k| 266.9 |   750M | 189 |8020 |3051 |  11k| 633k|  2 |   1 |3191 |-2.496045e+03 | 1.261706e+04 |    Inf | unknown
 2510s| 10900 | 10901 |  2941k| 267.6 |   753M | 189 |8020 |3051 |  11k| 643k|  2 |   1 |3192 |-2.496045e+03 | 1.261706e+04 |    Inf | unknown
 2526s| 11000 | 11001 |  2961k| 266.9 |   757M | 189 |8020 |3051 |  12k| 651k|  9 |   1 |3194 |-2.496045e+03 | 1.261706e+04 |    Inf | unknown
 2544s| 11100 | 11101 |  2992k| 267.3 |   760M | 189 |8020 |3051 |  13k| 663k|  4 |   1 |3194 |-2.496045e+03 | 1.261706e+04 |    Inf | unknown
 2559s| 11200 | 11201 |  3015k| 267.1 |   767M | 189 |8020 |3051 |  11k| 671k|  2 |   1 |3227 |-2.496045e+03 | 1.261706e+04 |    Inf | unknown
 time | node  | left  |LP iter|LP it/n|mem/heur|mdpt |vars |cons |rows |cuts |sepa|confs|strbr|  dualbound   | primalbound  |  gap   | compl. 
 2575s| 11300 | 11301 |  3035k| 266.5 |   771M | 189 |8020 |3051 |  11k| 678k|  4 |   1 |3268 |-2.496045e+03 | 1.261706e+04 |    Inf | unknown
 2597s| 11400 | 11401 |  3070k| 267.2 |   776M | 189 |8020 |3051 |  13k| 692k|  5 |   1 |3320 |-2.496045e+03 | 1.261706e+04 |    Inf | unknown
 2613s| 11500 | 11501 |  3095k| 267.0 |   781M | 189 |8020 |3051 |  11k| 699k|  2 |   1 |3359 |-2.496045e+03 | 1.261706e+04 |    Inf | unknown
 2632s| 11600 | 11601 |  3128k| 267.6 |   785M | 189 |8020 |3051 |  14k| 713k|  2 |   1 |3398 |-2.496045e+03 | 1.261706e+04 |    Inf | unknown
 2664s| 11700 | 11701 |  3169k| 268.7 |   801M | 189 |8020 |3051 |  11k| 724k|  9 |   1 |3509 |-2.495965e+03 | 1.261706e+04 |    Inf | unknown
 2688s| 11800 | 11801 |  3216k| 270.4 |   812M | 189 |8020 |3051 |  11k| 735k|  6 |   1 |3557 |-2.495965e+03 | 1.261706e+04 |    Inf | unknown
 2706s| 11900 | 11901 |  3249k| 270.9 |   815M | 189 |8020 |3051 |  14k| 749k|  6 |   1 |3562 |-2.495965e+03 | 1.261706e+04 |    Inf | unknown
 2724s| 12000 | 12001 |  3272k| 270.6 |   819M | 189 |8020 |3051 |  11k| 757k|  2 |   1 |3599 |-2.495965e+03 | 1.261706e+04 |    Inf | unknown
 2742s| 12100 | 12101 |  3303k| 271.0 |   822M | 189 |8020 |3051 |  12k| 767k|  8 |   1 |3601 |-2.495965e+03 | 1.261706e+04 |    Inf | unknown
 2761s| 12200 | 12201 |  3342k| 271.9 |   829M | 189 |8020 |3051 |  14k| 783k|  7 |   1 |3603 |-2.495965e+03 | 1.261706e+04 |    Inf | unknown
 2778s| 12300 | 12301 |  3368k| 271.8 |   834M | 189 |8020 |3051 |  11k| 792k|  2 |   1 |3605 |-2.495965e+03 | 1.261706e+04 |    Inf | unknown
 2806s| 12400 | 12401 |  3388k| 271.2 |   840M | 189 |8020 |3051 |  12k| 799k| 13 |   1 |3606 |-2.495965e+03 | 1.261706e+04 |    Inf | unknown
 2825s| 12500 | 12501 |  3429k| 272.4 |   843M | 189 |8020 |3051 |  14k| 814k|  2 |   1 |3610 |-2.495965e+03 | 1.261706e+04 |    Inf | unknown
 2842s| 12600 | 12601 |  3447k| 271.6 |   846M | 189 |8020 |3051 |  12k| 817k|  9 |   1 |3613 |-2.495965e+03 | 1.261706e+04 |    Inf | unknown
 2856s| 12700 | 12701 |  3465k| 270.9 |   848M | 189 |8020 |3051 |  11k| 820k|  2 |   1 |3613 |-2.495965e+03 | 1.261706e+04 |    Inf | unknown
 time | node  | left  |LP iter|LP it/n|mem/heur|mdpt |vars |cons |rows |cuts |sepa|confs|strbr|  dualbound   | primalbound  |  gap   | compl. 
 2871s| 12800 | 12801 |  3489k| 270.7 |   852M | 189 |8020 |3051 |  11k| 828k|  4 |   1 |3614 |-2.495965e+03 | 1.261706e+04 |    Inf | unknown
 2891s| 12900 | 12901 |  3520k| 271.0 |   856M | 189 |8020 |3051 |  13k| 839k|  7 |   1 |3615 |-2.495965e+03 | 1.261706e+04 |    Inf | unknown
 2909s| 13000 | 13001 |  3548k| 271.0 |   859M | 189 |8020 |3051 |  13k| 850k|  6 |   1 |3622 |-2.495965e+03 | 1.261706e+04 |    Inf | unknown
 2924s| 13100 | 13101 |  3571k| 270.8 |   862M | 189 |8020 |3051 |  11k| 859k|  2 |   1 |3627 |-2.495965e+03 | 1.261706e+04 |    Inf | unknown
 2942s| 13200 | 13201 |  3599k| 270.8 |   864M | 189 |8020 |3051 |  12k| 867k| 10 |   1 |3629 |-2.495965e+03 | 1.261706e+04 |    Inf | unknown
 2959s| 13300 | 13301 |  3626k| 270.8 |   872M | 189 |8020 |3051 |  13k| 878k|  9 |   1 |3630 |-2.495965e+03 | 1.261706e+04 |    Inf | unknown
 3000s| 13400 | 13401 |  3672k| 272.2 |   889M | 189 |8020 |3051 |  11k| 890k|  2 |   1 |3885 |-2.495892e+03 | 1.261706e+04 |    Inf | unknown
 3016s| 13500 | 13501 |  3696k| 272.0 |   892M | 189 |8020 |3051 |  11k| 899k|  2 |   1 |3885 |-2.495892e+03 | 1.261706e+04 |    Inf | unknown
 3034s| 13600 | 13601 |  3725k| 272.1 |   895M | 189 |8020 |3051 |  12k| 908k| 10 |   1 |3886 |-2.495892e+03 | 1.261706e+04 |    Inf | unknown
 3054s| 13700 | 13701 |  3758k| 272.5 |   900M | 189 |8020 |3051 |  13k| 920k|  5 |   1 |3887 |-2.495892e+03 | 1.261706e+04 |    Inf | unknown
 3072s| 13800 | 13801 |  3783k| 272.3 |   908M | 189 |8020 |3051 |  11k| 926k|  5 |   1 |3931 |-2.495794e+03 | 1.261706e+04 |    Inf | unknown
 3092s| 13900 | 13901 |  3823k| 273.2 |   915M | 189 |8020 |3051 |  11k| 940k|  2 |   1 |3932 |-2.495794e+03 | 1.261706e+04 |    Inf | unknown
 3118s| 14000 | 14001 |  3851k| 273.3 |   917M | 189 |8020 |3051 |  11k| 949k|  6 |   1 |3933 |-2.495794e+03 | 1.261706e+04 |    Inf | unknown
 3137s| 14100 | 14101 |  3881k| 273.5 |   925M | 189 |8020 |3051 |  13k| 962k| 10 |   1 |3933 |-2.495794e+03 | 1.261706e+04 |    Inf | unknown
 3152s| 14200 | 14201 |  3903k| 273.2 |   928M | 189 |8020 |3051 |  11k| 970k|  2 |   1 |3934 |-2.495794e+03 | 1.261706e+04 |    Inf | unknown
 time | node  | left  |LP iter|LP it/n|mem/heur|mdpt |vars |cons |rows |cuts |sepa|confs|strbr|  dualbound   | primalbound  |  gap   | compl. 
 3172s| 14300 | 14301 |  3939k| 273.7 |   931M | 189 |8020 |3051 |  13k| 983k|  9 |   1 |3934 |-2.495794e+03 | 1.261706e+04 |    Inf | unknown
 3190s| 14400 | 14401 |  3961k| 273.4 |   935M | 189 |8020 |3051 |  13k| 992k|  4 |   1 |3937 |-2.495794e+03 | 1.261706e+04 |    Inf | unknown
 3206s| 14500 | 14501 |  3989k| 273.4 |   941M | 189 |8020 |3051 |  11k|1000k|  2 |   1 |3937 |-2.495794e+03 | 1.261706e+04 |    Inf | unknown
 3224s| 14600 | 14601 |  4023k| 273.8 |   947M | 189 |8020 |3051 |  14k|1013k|  6 |   1 |3937 |-2.495794e+03 | 1.261706e+04 |    Inf | unknown
 3240s| 14700 | 14701 |  4045k| 273.5 |   951M | 189 |8020 |3051 |  11k|1020k|  2 |   1 |3938 |-2.495794e+03 | 1.261706e+04 |    Inf | unknown
 3255s| 14800 | 14801 |  4071k| 273.4 |   954M | 189 |8020 |3051 |  12k|1028k| 11 |   1 |3939 |-2.495794e+03 | 1.261706e+04 |    Inf | unknown
 3274s| 14900 | 14901 |  4104k| 273.8 |   957M | 189 |8020 |3051 |  14k|1041k|  2 |   1 |3940 |-2.495794e+03 | 1.261706e+04 |    Inf | unknown
 3290s| 15000 | 15001 |  4127k| 273.5 |   966M | 189 |8020 |3051 |  11k|1050k|  2 |   1 |3951 |-2.495794e+03 | 1.261706e+04 |    Inf | unknown
 3310s| 15100 | 15101 |  4156k| 273.6 |   969M | 189 |8020 |3051 |  13k|1060k|  6 |   1 |4001 |-2.495794e+03 | 1.261706e+04 |    Inf | unknown
 3331s| 15200 | 15201 |  4192k| 274.2 |   974M | 189 |8020 |3051 |  14k|1074k|  5 |   1 |4031 |-2.495794e+03 | 1.261706e+04 |    Inf | unknown
 3347s| 15300 | 15301 |  4212k| 273.7 |   978M | 189 |8020 |3051 |  11k|1080k|  5 |   1 |4079 |-2.495794e+03 | 1.261706e+04 |    Inf | unknown
 3368s| 15400 | 15401 |  4241k| 273.8 |   983M | 189 |8020 |3051 |  11k|1092k|  2 |   1 |4122 |-2.495794e+03 | 1.261706e+04 |    Inf | unknown
 3385s| 15500 | 15501 |  4268k| 273.8 |   990M | 189 |8020 |3051 |  12k|1099k|  2 |   1 |4148 |-2.495794e+03 | 1.261706e+04 |    Inf | unknown
 3407s| 15600 | 15601 |  4300k| 274.1 |  1001M | 189 |8020 |3051 |  11k|1107k|  3 |   1 |4227 |-2.495736e+03 | 1.261706e+04 |    Inf | unknown
 3425s| 15700 | 15701 |  4330k| 274.2 |  1006M | 189 |8020 |3051 |  13k|1120k|  8 |   1 |4250 |-2.495736e+03 | 1.261706e+04 |    Inf | unknown
 time | node  | left  |LP iter|LP it/n|mem/heur|mdpt |vars |cons |rows |cuts |sepa|confs|strbr|  dualbound   | primalbound  |  gap   | compl. 
 3452s| 15800 | 15801 |  4357k| 274.2 |  1010M | 189 |8020 |3051 |  12k|1128k|  6 |   1 |4252 |-2.495736e+03 | 1.261706e+04 |    Inf | unknown
 3469s| 15900 | 15901 |  4384k| 274.2 |  1015M | 189 |8020 |3051 |  13k|1138k|  4 |   1 |4254 |-2.495736e+03 | 1.261706e+04 |    Inf | unknown
 3485s| 16000 | 16001 |  4412k| 274.2 |  1020M | 189 |8020 |3051 |  12k|1146k|  6 |   1 |4259 |-2.495736e+03 | 1.261706e+04 |    Inf | unknown
 3505s| 16100 | 16101 |  4445k| 274.6 |  1025M | 189 |8020 |3051 |  11k|1159k|  2 |   1 |4262 |-2.495736e+03 | 1.261706e+04 |    Inf | unknown
 3521s| 16200 | 16201 |  4469k| 274.3 |  1029M | 189 |8020 |3051 |  12k|1167k|  2 |   1 |4267 |-2.495736e+03 | 1.261706e+04 |    Inf | unknown
 3567s| 16300 | 16301 |  4521k| 275.9 |  1045M | 189 |8020 |3051 |  13k|1181k| 13 |   1 |4538 |-2.495580e+03 | 1.261706e+04 |    Inf | unknown
 3584s| 16400 | 16401 |  4549k| 275.9 |  1049M | 189 |8020 |3051 |  11k|1189k|  2 |   1 |4540 |-2.495580e+03 | 1.261706e+04 |    Inf | unknown

SCIP Status        : solving was interrupted [time limit reached]
Solving Time (sec) : 3600.01
Solving Nodes      : 16493
Primal Bound       : +1.26170589747582e+04 (40 solutions)
Dual Bound         : -2.49558030761663e+03
Gap                : infinite
reading holmberg data file ../../../../../instances/uflp/holmberg/p13
primal_bound = 12617.058974758249, dual_bound = -2495.5803076166294, gap = 119.7794138286054, time = 3603.05
